200
1000
494
492
491
488
487
483
480
479
479
478
476
476
476
474
472
469
466
466
460
459
459
456
453
452
446
446
446
442
442
442
437
434
430
429
425
422
422
421
417
416
412
411
405
405
402
400
399
399
394
387
387
387
387
386
385
379
378
376
376
373
372
372
371
371
371
371
370
369
367
365
361
361
360
359
356
356
355
353
352
352
351
348
348
347
346
346
346
346
345
343
343
342
341
341
340
338
337
337
331
330
330
329
326
322
321
317
316
315
311
309
308
307
305
304
303
299
299
298
295
294
294
292
288
284
280
279
279
279
278
277
276
274
274
271
268
267
267
266
265
262
262
260
259
258
252
248
247
246
245
242
240
238
232
231
231
229
229
228
226
225
224
224
222
220
216
216
215
214
212
209
205
201
200
200
199
198
197
196
194
194
191
190
190
186
186
185
184
183
181
181
179
179
177
177
177
175
174
169
168
168
